c ---- [ banner ] ------------------------------------------------------------
c
c Kissat SAT Solver
c 
c Copyright (c) 2021-2022 Armin Biere University of Freiburg
c Copyright (c) 2019-2021 Armin Biere Johannes Kepler University Linz
c 
c Version 3.0.0 97917ddf2b12adc6f63c7b2a5a403a1ee7d81836
c gcc (Ubuntu 9.4.0-1ubuntu1~20.04.1) 9.4.0 -W -Wall -O3 -DNDEBUG
c Fri Oct 7 14:23:58 PDT 2022 Linux jap-Lenovo-Yoga-C740-15IML 5.15.0-48-generic x86_64
c
c ---- [ parsing ] -----------------------------------------------------------
c
c opened and reading DIMACS file:
c
c   Pigeon9Holes4
c
c parsed 'p cnf 36 153' header
c closing input after reading 1498 bytes (1 KB)
c finished parsing after 0.00 seconds
c
c ---- [ solving ] -----------------------------------------------------------
c
c  seconds switched rate      trail  variables
c         MB reductions conflicts glue   remaining
c          level restarts redundant irredundant
c
c *  0.00  1 0 0 0  0 0   0   0 0% 0 153 36 97%
c {  0.00  1 0 0 0  0 0   0   0 0% 0 153 36 97%
c i  0.00  1 3 0 0  0 1  10   9 92% 1 153 35 95%
c i  0.00  1 4 0 0  0 1  31  28 92% 2 153 26 70%
c i  0.00  1 4 0 0  0 1  32  28 92% 2 153 24 65%
c i  0.00  1 4 0 0  0 1  33  28 91% 2 153 22 59%
c }  0.00  1 4 0 0  0 1  35  28 91% 2 153  0 0%
c 0  0.00  1 4 0 0  0 1  35  28 91% 2 153  0 0%
c
c ---- [ result ] ------------------------------------------------------------
c
s UNSATISFIABLE
c
c ---- [ profiling ] ---------------------------------------------------------
c
c           0.00   66.30 %  search
c           0.00   50.54 %  focused
c           0.00   15.76 %  parse
c           0.00    0.00 %  simplify
c =============================================
c           0.00  100.00 %  total
c
c ---- [ statistics ] --------------------------------------------------------
c
c conflicts:                               35            29812.61 per second
c decisions:                               43                1.23 per conflict
c propagations:                           572           487223    per second
c
c ---- [ resources ] ---------------------------------------------------------
c
c maximum-resident-set-size:           987136 bytes          1 MB
c process-time:                                              0.00 seconds
c
c ---- [ shutting down ] -----------------------------------------------------
c
c exit 20
